feasible solution found by trivial heuristic after 0.0 seconds, objective value 0.000000e+00
presolving:
(round 1, fast)       64 del vars, 127 del conss, 0 add conss, 0 chg bounds, 0 chg sides, 0 chg coeffs, 0 upgd conss, 0 impls, 873 clqs
(round 2, fast)       77 del vars, 127 del conss, 0 add conss, 0 chg bounds, 0 chg sides, 0 chg coeffs, 0 upgd conss, 0 impls, 873 clqs
   (0.0s) running MILP presolver
   (0.0s) MILP presolver (2 rounds): 0 aggregations, 102 fixings, 0 bound changes
(round 3, medium)     179 del vars, 127 del conss, 0 add conss, 0 chg bounds, 0 chg sides, 0 chg coeffs, 0 upgd conss, 0 impls, 871 clqs
(round 4, fast)       189 del vars, 139 del conss, 0 add conss, 0 chg bounds, 0 chg sides, 0 chg coeffs, 0 upgd conss, 0 impls, 861 clqs
(round 5, exhaustive) 189 del vars, 141 del conss, 0 add conss, 0 chg bounds, 2 chg sides, 0 chg coeffs, 0 upgd conss, 0 impls, 861 clqs
(round 6, exhaustive) 189 del vars, 141 del conss, 0 add conss, 0 chg bounds, 2 chg sides, 0 chg coeffs, 859 upgd conss, 0 impls, 861 clqs
(round 7, medium)     478 del vars, 141 del conss, 0 add conss, 0 chg bounds, 2 chg sides, 288 chg coeffs, 859 upgd conss, 0 impls, 861 clqs
(round 8, fast)       529 del vars, 151 del conss, 0 add conss, 0 chg bounds, 2 chg sides, 288 chg coeffs, 859 upgd conss, 0 impls, 851 clqs
   (0.0s) running MILP presolver
   (0.0s) MILP presolver found nothing
   (0.1s) probing: 51/971 (5.3%) - 0 fixings, 0 aggregations, 0 implications, 0 bound changes
   (0.1s) probing aborted: 50/50 successive totally useless probings
   (0.1s) symmetry computation started: requiring (bin +, int -, cont +), (fixed: bin -, int +, cont -)
   (0.1s) no symmetry present
presolving (9 rounds: 9 fast, 5 medium, 3 exhaustive):
 529 deleted vars, 151 deleted constraints, 0 added constraints, 0 tightened bounds, 0 added holes, 2 changed sides, 288 changed coefficients
 0 implications, 851 cliques
presolved problem has 971 variables (971 bin, 0 int, 0 impl, 0 cont) and 849 constraints
    849 constraints of type <setppc>
Presolving Time: 0.05

 time | node  | left  |LP iter|LP it/n|mem/heur|mdpt |vars |cons |rows |cuts |sepa|confs|strbr|  dualbound   | primalbound  |  gap   | compl. 
t 0.1s|     1 |     0 |     0 |     - | trivial|   0 | 971 | 849 |   0 |   0 |  0 |   0 |   0 | 5.970447e+06 | 6.546461e+05 | 812.01%| unknown
p 0.1s|     1 |     0 |     0 |     - |  clique|   0 | 971 | 849 | 849 |   0 |  0 |   0 |   0 | 5.970447e+06 | 1.375860e+06 | 333.94%| unknown
p 0.1s|     1 |     0 |   116 |     - | vbounds|   0 | 971 | 849 | 849 |   0 |  0 |   0 |   0 | 5.970447e+06 | 1.378603e+06 | 333.08%| unknown
  0.9s|     1 |     0 | 10725 |     - |    13M |   0 | 971 | 849 | 849 |   0 |  0 |   0 |   0 | 1.628004e+06 | 1.378603e+06 |  18.09%| unknown
  1.1s|     1 |     0 | 10972 |     - |    18M |   0 | 971 | 849 | 854 |   5 |  1 |   0 |   0 | 1.627326e+06 | 1.378603e+06 |  18.04%| unknown
  1.3s|     1 |     0 | 11248 |     - |    21M |   0 | 971 | 849 | 857 |   8 |  2 |   0 |   0 | 1.626417e+06 | 1.378603e+06 |  17.98%| unknown
  1.4s|     1 |     0 | 11459 |     - |    26M |   0 | 971 | 849 | 863 |  14 |  3 |   0 |   0 | 1.625695e+06 | 1.378603e+06 |  17.92%| unknown
  1.6s|     1 |     0 | 11728 |     - |    29M |   0 | 971 | 849 | 866 |  17 |  4 |   0 |   0 | 1.624900e+06 | 1.378603e+06 |  17.87%| unknown
  1.7s|     1 |     0 | 11993 |     - |    33M |   0 | 971 | 849 | 872 |  23 |  5 |   0 |   0 | 1.624310e+06 | 1.378603e+06 |  17.82%| unknown
  1.9s|     1 |     0 | 12254 |     - |    37M |   0 | 971 | 849 | 875 |  26 |  6 |   0 |   0 | 1.623982e+06 | 1.378603e+06 |  17.80%| unknown
  2.1s|     1 |     0 | 12412 |     - |    41M |   0 | 971 | 849 | 878 |  29 |  7 |   0 |   0 | 1.623821e+06 | 1.378603e+06 |  17.79%| unknown
  2.4s|     1 |     0 | 12660 |     - |    46M |   0 | 971 | 849 | 881 |  32 |  8 |   0 |   0 | 1.623632e+06 | 1.378603e+06 |  17.77%| unknown
  2.6s|     1 |     0 | 12762 |     - |    50M |   0 | 971 | 849 | 883 |  34 |  9 |   0 |   0 | 1.623499e+06 | 1.378603e+06 |  17.76%| unknown
  2.9s|     1 |     0 | 12906 |     - |    54M |   0 | 971 | 849 | 886 |  37 | 10 |   0 |   0 | 1.623441e+06 | 1.378603e+06 |  17.76%| unknown
  3.0s|     1 |     0 | 12990 |     - |    55M |   0 | 971 | 849 | 892 |  43 | 11 |   0 |   0 | 1.623403e+06 | 1.378603e+06 |  17.76%| unknown
 time | node  | left  |LP iter|LP it/n|mem/heur|mdpt |vars |cons |rows |cuts |sepa|confs|strbr|  dualbound   | primalbound  |  gap   | compl. 
  3.1s|     1 |     0 | 13076 |     - |    55M |   0 | 971 | 849 | 894 |  45 | 12 |   0 |   0 | 1.623375e+06 | 1.378603e+06 |  17.76%| unknown
  3.2s|     1 |     0 | 13091 |     - |    55M |   0 | 971 | 849 | 896 |  47 | 13 |   0 |   0 | 1.623369e+06 | 1.378603e+06 |  17.75%| unknown
  3.3s|     1 |     0 | 13101 |     - |    55M |   0 | 971 | 849 | 897 |  48 | 14 |   0 |   0 | 1.623368e+06 | 1.378603e+06 |  17.75%| unknown
  3.5s|     1 |     0 | 13115 |     - |    55M |   0 | 971 | 849 | 898 |  49 | 15 |   0 |   0 | 1.623366e+06 | 1.378603e+06 |  17.75%| unknown
  3.6s|     1 |     0 | 13163 |     - |    55M |   0 | 971 | 849 | 898 |  50 | 16 |   0 |   0 | 1.623355e+06 | 1.378603e+06 |  17.75%| unknown
  3.7s|     1 |     0 | 13216 |     - |    55M |   0 | 971 | 849 | 899 |  51 | 17 |   0 |   0 | 1.623344e+06 | 1.378603e+06 |  17.75%| unknown
  3.8s|     1 |     0 | 13226 |     - |    56M |   0 | 971 | 849 | 901 |  53 | 18 |   0 |   0 | 1.623342e+06 | 1.378603e+06 |  17.75%| unknown
  4.0s|     1 |     0 | 13265 |     - |    56M |   0 | 971 | 849 | 903 |  55 | 19 |   0 |   0 | 1.623329e+06 | 1.378603e+06 |  17.75%| unknown
d 4.9s|     1 |     0 | 19371 |     - |farkasdi|   0 | 971 | 849 | 903 |   0 | 19 |   0 |   0 | 1.623329e+06 | 1.540634e+06 |   5.37%| unknown
L16.5s|     1 |     0 | 19371 |     - |    rens|   0 | 971 | 849 | 903 |  55 | 19 |   0 |   0 | 1.623329e+06 | 1.597619e+06 |   1.61%| unknown
 16.6s|     1 |     0 | 19371 |     - |    56M |   0 | 971 | 849 | 903 |  55 | 19 |   0 |   0 | 1.623329e+06 | 1.597619e+06 |   1.61%| unknown
i16.6s|     1 |     0 | 19371 |     - |  oneopt|   0 | 971 | 849 | 903 |  55 | 19 |   0 |   0 | 1.623329e+06 | 1.599054e+06 |   1.52%| unknown
 17.0s|     1 |     0 | 19399 |     - |    56M |   0 | 971 | 849 | 904 |  56 | 20 |   0 |   0 | 1.623322e+06 | 1.599054e+06 |   1.52%| unknown
 17.1s|     1 |     0 | 19409 |     - |    56M |   0 | 971 | 849 | 905 |  57 | 21 |   0 |   0 | 1.623321e+06 | 1.599054e+06 |   1.52%| unknown
 31.8s|     1 |     2 | 19409 |     - |    57M |   0 | 971 | 849 | 905 |  57 | 21 |   0 |  69 | 1.621162e+06 | 1.599054e+06 |   1.38%| unknown
 time | node  | left  |LP iter|LP it/n|mem/heur|mdpt |vars |cons |rows |cuts |sepa|confs|strbr|  dualbound   | primalbound  |  gap   | compl. 
 54.0s|   100 |    29 | 47922 | 350.9 |    62M |  10 | 971 | 869 | 895 |  65 |  2 |  20 | 347 | 1.615054e+06 | 1.599054e+06 |   1.00%|  21.71%
*56.3s|   131 |    34 | 53897 | 313.2 |    LP  |  14 | 971 | 869 | 906 |  88 |  2 |  20 | 347 | 1.614800e+06 | 1.599066e+06 |   0.98%|  22.46%
*57.1s|   136 |    33 | 54739 | 307.8 |    LP  |  14 | 971 | 869 | 906 |  99 |  2 |  20 | 347 | 1.614800e+06 | 1.599227e+06 |   0.97%|  23.23%
*57.7s|   149 |    38 | 56178 | 290.5 |    LP  |  16 | 971 | 869 | 903 | 103 |  2 |  20 | 347 | 1.614800e+06 | 1.599381e+06 |   0.96%|  23.85%
*57.8s|   157 |    37 | 56327 | 276.5 |    LP  |  18 | 971 | 869 | 903 | 103 |  1 |  20 | 347 | 1.614800e+06 | 1.599985e+06 |   0.93%|  24.02%
*58.0s|   171 |    36 | 58878 | 268.8 |    LP  |  18 | 971 | 869 | 903 | 103 |  1 |  20 | 347 | 1.614735e+06 | 1.601680e+06 |   0.82%|  24.75%
*58.4s|   175 |    34 | 59283 | 264.9 |    LP  |  18 | 971 | 869 | 906 | 110 |  5 |  20 | 347 | 1.614735e+06 | 1.602570e+06 |   0.76%|  25.13%
*58.6s|   176 |    33 | 59438 | 264.3 |    LP  |  18 | 971 | 869 | 907 | 112 |  3 |  20 | 347 | 1.614735e+06 | 1.603097e+06 |   0.73%|  25.16%
*59.6s|   198 |    32 | 60922 | 242.3 |    LP  |  18 | 971 | 869 | 907 | 121 |  2 |  20 | 347 | 1.614735e+06 | 1.603568e+06 |   0.70%|  27.10%
 59.6s|   200 |    32 | 61135 | 240.9 |    84M |  18 | 971 | 869 | 903 | 121 |  2 |  20 | 347 | 1.614735e+06 | 1.603568e+06 |   0.70%|  27.60%
 64.4s|   300 |    28 | 80938 | 226.6 |    92M |  18 | 971 | 888 | 896 | 151 |  0 |  39 | 388 | 1.614143e+06 | 1.603568e+06 |   0.66%|  40.71%
 70.9s|   400 |    30 |102174 | 223.0 |    82M |  18 | 971 | 889 | 907 | 185 |  2 |  40 | 413 | 1.612493e+06 | 1.603568e+06 |   0.56%|  49.48%
 82.2s|   500 |    34 |125928 | 225.9 |    98M |  18 | 971 | 910 | 912 | 264 |  6 |  61 | 446 | 1.612007e+06 | 1.603568e+06 |   0.53%|  53.09%
 95.2s|   600 |    28 |152602 | 232.7 |   104M |  18 | 971 | 968 | 903 | 349 |  0 | 119 | 506 | 1.611213e+06 | 1.603568e+06 |   0.48%|  63.20%
  105s|   700 |    22 |177520 | 235.1 |   106M |  18 | 971 | 980 | 896 | 398 |  1 | 131 | 528 | 1.610052e+06 | 1.603568e+06 |   0.40%|  74.46%
 time | node  | left  |LP iter|LP it/n|mem/heur|mdpt |vars |cons |rows |cuts |sepa|confs|strbr|  dualbound   | primalbound  |  gap   | compl. 
  114s|   800 |     6 |208212 | 244.1 |   107M |  18 | 971 |1006 | 898 | 448 |  1 | 158 | 564 | 1.609693e+06 | 1.603568e+06 |   0.38%|  96.38%

SCIP Status        : problem is solved [optimal solution found]
Solving Time (sec) : 115.78
Solving Nodes      : 816
Primal Bound       : +1.60356754449755e+06 (554 solutions)
Dual Bound         : +1.60356754449755e+06
Gap                : 0.00 %
Solve Status: optimal
Solve Time: 115.78 seconds
